/*********************************************
 * OPL 12.6.0.0 Data
 * Author: Adrian Rodriguez Bazaga, Pau Rodriguez Esmerats
 * Creation Date: 09/12/2017 at 00:43:37
 *********************************************/

maxConsec=8;
maxPresence=8;
maxHours=6;
minHours=1;
hours=20;
demand= [7 10 10 9 9 9 7 7 4 1 1 0 1 0 1 0 0 0 0 0  ];
nNurses=13;
